# Initialization #
units real
dimension 3
boundary p p p
atom_style full
pair_style lj/cut/coul/long 9.0
bond_style harmonic
angle_style harmonic

# Atom definition #
read_data model.data

# Settings #
kspace_style pppm 1e-4
neighbor 2.0 bin
neigh_modify every 1
velocity all create 300 30000
fix 1 all shake 1e-4 100 0 b 1 a 1
fix 2 all npt temp 300 300 1000 iso 1 1 100
compute msd all msd com yes
thermo 1000
thermo_style custom step c_msd[4] temp density press pe

# Run a simulation #
timestep 1
run 100000
print "All done!"
